# Abinit input TEMPLATE
# -Uthpala Herath

# Note:
# 1 Ha = 27.211 eV
# 1 Bohr = 5.29E-11 m = 0.529177 Å

#-------------------- DIRECTORIES  --------------------

output_file = "Si.out"
pp_dirpath "~/local/abinit/pseudo-dojo/paw_pbe_standard/"
pseudos "Si.xml"


#-------------------- PARALLELIZATION  --------------------

autoparal 4

#-------------------- UNIT CELL --------------------

chkprim 0
acell 1 1 1 Angstrom

rprim
1.0 0.0 0.0
0.0 1.0 0.0
0.0 0.0 1.0

#-------------------- ATOMIC STRUCTURE --------------------

ntypat 3           # Types of real atoms
znucl 57 25 8      # E.g.- La Mn O

# Alchemical pseudopotentials for VCA
# npsp 4             # Total number of pseudopotentials (Including ghost atoms if using VCA)
# znucl 25 8 57 38   # If using VCA place ghost atoms last, E.g.- Mn O La Sr
# ntypalch 1         # Number of alchemical pseudopotentials
# mixalch 0.7 0.3    # Mixing based on znucl order

# Atomic positions
natom 5
typat 1 2 3 3 3    # Order as in znucl
xred
0.25 0.25 0.25
0.75 0.75 0.75
0.25 0.25 0.25
0.75 0.75 0.75
0.25 0.25 0.25

#----------------------- SPIN -----------------------

# nsppol 1
# nspinor 1

# Spin-orbit coupling
# so_psp 0

# Spin for each atom
# spinat
# 0.0 0.0 1.0
# 0.0 0.0 1.0
# 0.0 0.0 -1.0
# 0.0 0.0 1.0
# 0.0 0.0 -1.0

#-------------------- PLANE WAVE BASIS SET --------------------

ecut 30            # KE cutoff in Hartree
ecutsm 0.5         # Smoothing energy for lattice parameter optimization
# tsmear 0.001
ixc 11             # XC functional
pawecutdg 40       # Energy cutoff for the fine FFT grid

#-------------------- K-GRID --------------------
# COMMENT IF CALCULATING BANDSTRUCTURE

chksymbreak 0      # Check k-point symmetry breaking
kptopt 1           # K-point symmetry type
ngkpt 8 8 8        # Monkhorst-Pack grid
nshiftk 1
shiftk 0.5 0.5 0.5 # Choice of origin


#-------------------- SCF CALCULATION --------------------
# COMMENT IF CALCULATING BANDSTRUCTURE

diemac 9.0         # Model dielectric preconditioner
nstep 50           # Maximum number of SCF iterations
optforces 1        # Enforce calculation of forces at each SCF step

# tolvrs 1.0d-18     # Tolerance on residual of the SCF potential (rec: structural opt)
toldfe 1.0d-8     # Tolerance on difference of total energy (Ha)
# toldff 1.0d-6      # Tolerance on difference of forces (Ha/Bohr)
nband 10           # Number of bands

#-------------------- BANDSTRUCTURE --------------------
# UNCOMMENT THIS SECTION AND COMMENT K-GRID, SCF SECTIONS.

ndtset 2
jdtset 1 2

diemac 9.0
nstep 50
optforces 1
nband 15
chksymbreak 0      # Check k-point symmetry breaking
enunit    1        # Energy eigenvalues in eV


# DATASET 1 : SCF CALCULATION
kptopt1 1           # K-point symmetry type
ngkpt1 8 8 8        # Monkhorst-Pack grid
nshiftk1 1
shiftk1 0.5 0.5 0.5 # Choice of origin

prtden1 1           # Print the density, for use by dataset 2
toldfe1 1.0d-6      # Tolerance on difference of total energy (Ha)

# DATASET 2 : NSCF CALCULATION (BANDSTRUCTURE)
iscf2      -2
getden2     1
tolwfr2     1.0d-12

kptopt2     -5          # -1 x Number of segments (#HSP-1)
kptbounds2  0.0 0.0 0.0 #Gamma
            0.0 1/2 1/2 #X
            1/4 1/2 3/4 #W
            1/2 1/2 1/2 #L
            0.0 0.0 0.0 #Gamma
            3/8 3/8 3/4 #K

ndivk2     4*40 39 # divisions of segments OR
#ndivsm2    10 # divisions of the smallest of the segment

# OUTPUTS
prtprocar2 1        # Print PROCAR
prtdos2    3        # Print DOS
prtdosm2   1        # Print DOS with m decomposition
prtebands2 2        # output gnuplot files


#-------------------- ATOMIC OPTIMIZATION --------------------
# COMMENT OUT THIS SECTION IF DOING ATOMIC + CELL OPTIMIZATION.

# ionmov 2
# optcell 0
# ntime 10          # maximum number of ionic optimization steps
# tolmxf 1.0d-6     # tolerance on the maximal force (Ha/Bohr)

# constraints
# natfix 2          # Fix positions of these atoms
# iatfix 2 2

#-------------------- ATOMIC + CELL OPTIMIZATION --------------------

# # Note: Cell optimization should be followed by atomic optimization

# # Multi dataset mode
# ndtset 2   # 5 for Elastic constants calculation
# jdtset 1 2

# # First perform atomic optimization
# ionmov1 2
# optcell1 0
# ntime1 10          # Maximum number of ionic optimization steps
# tolmxf1 1.0d-6     # Tolerance on the maximal force (Ha/Bohr)

# # Get previous datasets
# getwfk2 1          # Start with wave functions from dataset1
# getxred2 1         # Start with relaxed coordinates from dataset 1

# # Now perform cell optimization
# dilatmx2 1.05       # Maximum scaling allowed for lattice parameters
# ionmov2  2
# optcell2 2
# ntime2   12
# tolmxf2 1.0d-6
# strfact2 100        # Scales the stresses to compare with same tolmxf convergence test
#                     # applied to the forces.

#-------------------- ELASTIC CONSTANTS --------------------

# # Note: Use the datasets from ATOMIC + CELL OPTIMIZATION.
# #       Afterwards, perform a GS calculation with new xred and acell.
# #       Next, do DDK WF calculation followed by RF calculation.

# # GS calculation with new xred and acell (from dataset #2).

# getcell3 2
# getxred3 2

# kptopt3 1
# tolvrs3 1.0d-18

# # Calculate the ddk wf's - needed for piezoelectric tensor and
# # Born effective charges in the next dataset.

#   getwfk4   3
#     iscf4  -3        #this option is needed for ddk
#   kptopt4   2        #use time-reversal symmetry only for k points
#     nqpt4   1        #one wave vector will be specified
#      qpt4   0 0 0    #need to specify gamma point
#   rfelfd4   2        #set for ddk wf's only
#    rfdir4   1 1 1    #full set of directions needed
#   tolwfr4   1.0d-20  #only wf convergence can be monitored here


# # Response-function calculations for all needed perturbations

#   getddk5   4
#   getwfk5   3
#   kptopt5   2        #use time-reversal symmetry only for k points
#     nqpt5   1
#      qpt5   0 0 0
#   rfphon5   1        #do atomic displacement perturbation
#  rfatpol5   1 1      #do for all atoms
#   rfstrs5   3        #do strain perturbation
#    rfdir5   1 1 1    #the full set of directions is needed
#   tolvrs5   1.0d-10  #need reasonable convergence of 1st-order quantities
